
Gurobi 9.0.1 (linux64) logging started Thu Apr 30 16:06:17 2020

Gurobi Optimizer version 9.0.1 build v9.0.1rc0 (linux64)
Optimize a model with 11327 rows, 12060 columns and 198990 nonzeros
Model fingerprint: 0x3932f9c2
Variable types: 0 continuous, 12060 integer (12032 binary)
Coefficient statistics:
  Matrix range     [1e+00, 1e+01]
  Objective range  [3e+00, 1e+02]
  Bounds range     [1e+00, 1e+00]
  RHS range        [1e+00, 1e+00]

User MIP start produced solution with objective 998 (0.27s)
Loaded user MIP start with objective 998

Presolve removed 928 rows and 1887 columns
Presolve time: 2.73s
Presolved: 10399 rows, 10173 columns, 162246 nonzeros
Variable types: 0 continuous, 10173 integer (10147 binary)

Root simplex log...

Iteration    Objective       Primal Inf.    Dual Inf.      Time
    3723    5.6187515e+02   2.783055e+03   0.000000e+00      5s
    6713    5.7140211e+02   5.839569e+02   0.000000e+00     10s
    9119    5.7469425e+02   7.815068e+02   0.000000e+00     15s
   11024    5.7542128e+02   2.603207e+02   0.000000e+00     20s
   12713    5.7580786e+02   8.791713e+02   0.000000e+00     25s
   14228    5.7600752e+02   2.543520e+02   0.000000e+00     30s
   15901    5.7625575e+02   2.661601e+02   0.000000e+00     35s
   17363    5.7632094e+02   0.000000e+00   0.000000e+00     39s

Root relaxation: objective 5.763209e+02, 17363 iterations, 36.13 seconds
Total elapsed time = 40.19s

    Nodes    |    Current Node    |     Objective Bounds      |     Work
 Expl Unexpl |  Obj  Depth IntInf | Incumbent    BestBd   Gap | It/Node Time

     0     0  576.32094    0 3264  998.00000  576.32094  42.3%     -   42s
     0     0  595.48350    0 3269  998.00000  595.48350  40.3%     -  153s
     0     0  596.81731    0 3320  998.00000  596.81731  40.2%     -  190s
     0     0  596.85617    0 3309  998.00000  596.85617  40.2%     -  204s
     0     0  596.89062    0 3294  998.00000  596.89062  40.2%     -  217s
     0     0  596.89129    0 3288  998.00000  596.89129  40.2%     -  218s
     0     0  608.97796    0 3318  998.00000  608.97796  39.0%     -  400s
     0     0  609.03497    0 3351  998.00000  609.03497  39.0%     -  426s
     0     0  609.04055    0 3364  998.00000  609.04055  39.0%     -  430s
     0     0  622.41856    0 3367  998.00000  622.41856  37.6%     -  745s
     0     0  623.53650    0 3333  998.00000  623.53650  37.5%     -  824s
     0     0  623.70289    0 3325  998.00000  623.70289  37.5%     -  849s
     0     0  623.71709    0 3319  998.00000  623.71709  37.5%     -  857s
     0     0  627.76856    0 3276  998.00000  627.76856  37.1%     - 1115s
     0     0  627.99672    0 3267  998.00000  627.99672  37.1%     - 1179s
     0     0  628.01956    0 3264  998.00000  628.01956  37.1%     - 1194s
     0     0  628.02425    0 3286  998.00000  628.02425  37.1%     - 1201s
     0     0  629.02025    0 3410  998.00000  629.02025  37.0%     - 1331s
     0     0  629.13560    0 3412  998.00000  629.13560  37.0%     - 1370s
     0     0  629.16163    0 3428  998.00000  629.16163  37.0%     - 1387s
     0     0  629.16655    0 3406  998.00000  629.16655  37.0%     - 1394s
     0     0  629.76348    0 3429  998.00000  629.76348  36.9%     - 1484s
     0     0  629.81297    0 3424  998.00000  629.81297  36.9%     - 1512s
     0     0  629.83086    0 3437  998.00000  629.83086  36.9%     - 1527s
     0     0  630.36927    0 3475  998.00000  630.36927  36.8%     - 1614s
     0     0  630.43891    0 3488  998.00000  630.43891  36.8%     - 1648s
     0     0  630.46086    0 3495  998.00000  630.46086  36.8%     - 1668s
     0     0  630.85335    0 3496  998.00000  630.85335  36.8%     - 1739s
     0     0  630.89236    0 3459  998.00000  630.89236  36.8%     - 1767s
     0     0  630.90960    0 3464  998.00000  630.90960  36.8%     - 1784s
     0     0  631.09845    0 3448  998.00000  631.09845  36.8%     - 1831s
     0     0  631.09845    0 3441  998.00000  631.09845  36.8%     - 1850s
     0     2  631.09922    0 3440  998.00000  631.09922  36.8%     - 1997s
     1     3  633.04454    1 3410  998.00000  631.09922  36.8% 22609 2132s
     2     4  635.16468    1 3180  998.00000  633.04506  36.6% 48264 2598s
     3     5  634.25443    2 3495  998.00000  633.04825  36.6% 37118 2679s
     4     6  681.32495    2 3077  998.00000  634.25449  36.4% 45267 3103s
     5     7  634.69310    3 3475  998.00000  634.25449  36.4% 38234 3167s

Cutting planes:
  Gomory: 1
  Cover: 1
  MIR: 48
  StrongCG: 6
  GUB cover: 1
  Zero half: 49
  RLT: 2299

Explored 6 nodes (502714 simplex iterations) in 3600.01 seconds
Thread count was 1 (of 40 available processors)

Solution count 1: 998 

Time limit reached
Best objective 9.980000000000e+02, best bound 6.350000000000e+02, gap 36.3727%

User-callback calls 4347, time in user-callback 0.01 sec
